(set-logic HORN)
(declare-fun elem_exists@pre ((Array Int Int) Int Int Int ) Bool)
(declare-fun insert@summary ((Array Int Int) Int Int Int Int (Array Int Int) ) Bool)
(declare-fun insert@pre ((Array Int Int) Int Int Int ) Bool)
(declare-fun elem_exists@summary ((Array Int Int) Int Int Int Bool ) Bool)
(declare-fun !inv1 (Int Int (Array Int Int) (Array Int Int) Int ) Bool)
(declare-fun !inv0 ((Array Int Int) Int Int Int Int ) Bool)
(declare-fun !inv2 (Int Int (Array Int Int) (Array Int Int) Int Int Int Bool ) Bool)
(declare-fun !inv3 (Int Int (Array Int Int) (Array Int Int) Int Int Int Bool ) Bool)
(assert (forall ((.set@0 (Array Int Int))(size@0 Int)(.set!size@0 Int)(value@0 Int)(set@0 (Array Int Int))(set@1 (Array Int Int))(!return@0 Int)) (=> (and (insert@pre |set@0| |.set!size@0| |size@0| |value@0|) (= |.set@0| |set@0|) (= |set@1| (store |set@0| |size@0| |value@0|)) (= |!return@0| (+ |size@0| 1))) (insert@summary |.set@0| |.set!size@0| |size@0| |value@0| |!return@0| |set@1|))))
(assert (forall ((set@0 (Array Int Int))(.set!size@0 Int)(size@0 Int)(value@0 Int)(i@0 Int)) (=> (and (= |i@0| 0) (elem_exists@pre |set@0| |.set!size@0| |size@0| |value@0|)) (!inv0 |set@0| |.set!size@0| |size@0| |value@0| |i@0|))))
(assert (forall ((set@0 (Array Int Int))(.set!size@0 Int)(size@0 Int)(value@0 Int)(i@0 Int)(!return@0 Bool)) (=> (and (!inv0 |set@0| |.set!size@0| |size@0| |value@0| |i@0|) (< |i@0| |size@0|) (= (select |set@0| |i@0|) |value@0|) (= |!return@0| true)) (elem_exists@summary |set@0| |.set!size@0| |size@0| |value@0| |!return@0|))))
(assert (forall ((set@0 (Array Int Int))(.set!size@0 Int)(size@0 Int)(value@0 Int)(i@0 Int)(!return@0 Bool)) (=> (and (!inv0 |set@0| |.set!size@0| |size@0| |value@0| |i@0|) (not (< |i@0| |size@0|)) (= |!return@0| false)) (elem_exists@summary |set@0| |.set!size@0| |size@0| |value@0| |!return@0|))))
(assert (forall ((SIZE@0 Int)(n@0 Int)(set@0 (Array Int Int))(values@0 (Array Int Int))(i@0 Int)(i@1 Int)) (=> (and (> |SIZE@0| 0) (= |n@0| 0) (= |i@0| 0) (= |i@1| 0)) (!inv1 |SIZE@0| |n@0| |set@0| |values@0| |i@1|))))
(assert (forall ((SIZE@0 Int)(n@0 Int)(set@0 (Array Int Int))(values@0 (Array Int Int))(i@0 Int)) (=> (and (< |i@0| |SIZE@0|) (!inv1 |SIZE@0| |n@0| |set@0| |values@0| |i@0|)) (elem_exists@pre |set@0| |SIZE@0| |n@0| (select |values@0| |i@0|)))))
(assert (forall ((!rtrnd0 Bool)(SIZE@0 Int)(n@0 Int)(set@0 (Array Int Int))(values@0 (Array Int Int))(i@0 Int)) (=> (and (elem_exists@summary |set@0| |SIZE@0| |n@0| (select |values@0| |i@0|) !rtrnd0) (elem_exists@pre |set@0| |SIZE@0| |n@0| (select |values@0| |i@0|)) (!inv1 |SIZE@0| |n@0| |set@0| |values@0| |i@0|) (< |i@0| |SIZE@0|) (not !rtrnd0)) (insert@pre |set@0| |SIZE@0| |n@0| (select |values@0| |i@0|)))))
(assert (forall ((SIZE@0 Int)(n@0 Int)(set@0 (Array Int Int))(values@0 (Array Int Int))(i@0 Int)(pos@0 Int)(element@0 Int)(found@0 Bool)(i@1 Int)) (=> (and (!inv1 |SIZE@0| |n@0| |set@0| |values@0| |i@0|) (not (< |i@0| |SIZE@0|)) (= |found@0| false) (= |i@1| 0)) (!inv2 |SIZE@0| |n@0| |set@0| |values@0| |i@1| |pos@0| |element@0| |found@0|))))
(assert (forall ((SIZE@0 Int)(n@0 Int)(set@0 (Array Int Int))(values@0 (Array Int Int))(i@0 Int)(pos@0 Int)(element@0 Int)(found@0 Bool)(i@1 Int)) (=> (and (!inv2 |SIZE@0| |n@0| |set@0| |values@0| |i@0| |pos@0| |element@0| |found@0|) (not (and (< |i@0| |SIZE@0|) (not |found@0|))) |found@0| (= |i@1| |pos@0|)) (!inv3 |SIZE@0| |n@0| |set@0| |values@0| |i@1| |pos@0| |element@0| |found@0|))))
(assert (forall ((SIZE@0 Int)(n@0 Int)(set@0 (Array Int Int))(values@0 (Array Int Int))(i@0 Int)(pos@0 Int)(element@0 Int)(found@0 Bool)(set@1 (Array Int Int))(i@1 Int)) (=> (and (!inv3 |SIZE@0| |n@0| |set@0| |values@0| |i@0| |pos@0| |element@0| |found@0|) (< |i@0| (- |SIZE@0| 1)) (= |set@1| (store |set@0| |i@0| (select |set@0| (+ |i@0| 1)))) (= |i@1| (+ |i@0| 1))) (!inv3 |SIZE@0| |n@0| |set@1| |values@0| |i@1| |pos@0| |element@0| |found@0|))))
(assert (forall ((SIZE@0 Int)(n@0 Int)(set@0 (Array Int Int))(values@0 (Array Int Int))(i@0 Int)(pos@0 Int)(element@0 Int)(found@0 Bool)(i@1 Int)(pos@1 Int)(found@1 Bool)) (=> (and (!inv2 |SIZE@0| |n@0| |set@0| |values@0| |i@0| |pos@1| |element@0| |found@1|) (= |i@1| (+ |i@0| 1)) (= (select |set@0| |i@0|) |element@0|) (= |found@0| true) (= |pos@0| |i@0|) (< |i@0| |SIZE@0|) (not |found@1|)) (!inv2 |SIZE@0| |n@0| |set@0| |values@0| |i@1| |pos@0| |element@0| |found@0|))))
(assert (forall ((!rtrnd0 Bool)(SIZE@0 Int)(n@0 Int)(set@0 (Array Int Int))(values@0 (Array Int Int))(i@0 Int)(i@1 Int)) (=> (and (elem_exists@summary |set@0| |SIZE@0| |n@0| (select |values@0| |i@0|) !rtrnd0) (elem_exists@pre |set@0| |SIZE@0| |n@0| (select |values@0| |i@0|)) (!inv1 |SIZE@0| |n@0| |set@0| |values@0| |i@0|) (= |i@1| (+ |i@0| 1)) (< |i@0| |SIZE@0|) (not (not !rtrnd0))) (!inv1 |SIZE@0| |n@0| |set@0| |values@0| |i@1|))))
(assert (forall ((!rtrnd0 Bool)(!rtrnd1 Int)(SIZE@0 Int)(n@0 Int)(set@0 (Array Int Int))(values@0 (Array Int Int))(i@0 Int)(i@1 Int)(set@1 (Array Int Int))(n@1 Int)) (=> (and (insert@summary |set@1| |SIZE@0| |n@1| (select |values@0| |i@0|) !rtrnd1 |set@0|) (insert@pre |set@1| |SIZE@0| |n@1| (select |values@0| |i@0|)) (elem_exists@summary |set@1| |SIZE@0| |n@1| (select |values@0| |i@0|) !rtrnd0) (elem_exists@pre |set@1| |SIZE@0| |n@1| (select |values@0| |i@0|)) (!inv1 |SIZE@0| |n@1| |set@1| |values@0| |i@0|) (= |i@1| (+ |i@0| 1)) (< |i@0| |SIZE@0|) (not !rtrnd0) (= |n@0| !rtrnd1)) (!inv1 |SIZE@0| |n@0| |set@0| |values@0| |i@1|))))
(assert (forall ((SIZE@0 Int)(n@0 Int)(set@0 (Array Int Int))(values@0 (Array Int Int))(i@0 Int)(pos@0 Int)(element@0 Int)(found@0 Bool)(i@1 Int)) (=> (and (!inv2 |SIZE@0| |n@0| |set@0| |values@0| |i@0| |pos@0| |element@0| |found@0|) (= |i@1| (+ |i@0| 1)) (not (= (select |set@0| |i@0|) |element@0|)) (< |i@0| |SIZE@0|) (not |found@0|)) (!inv2 |SIZE@0| |n@0| |set@0| |values@0| |i@1| |pos@0| |element@0| |found@0|))))
(assert (forall ((set@0 (Array Int Int))(.set!size@0 Int)(size@0 Int)(value@0 Int)(i@0 Int)(i@1 Int)) (=> (and (!inv0 |set@0| |.set!size@0| |size@0| |value@0| |i@0|) (= |i@1| (+ |i@0| 1)) (< |i@0| |size@0|) (not (= (select |set@0| |i@0|) |value@0|))) (!inv0 |set@0| |.set!size@0| |size@0| |value@0| |i@1|))))
(assert (forall ((SIZE@0 Int)(n@0 Int)(set@0 (Array Int Int))(values@0 (Array Int Int))(i@0 Int)(pos@0 Int)(element@0 Int)(found@0 Bool)) (=> (and (!inv3 |SIZE@0| |n@0| |set@0| |values@0| |i@0| |pos@0| |element@0| |found@0|) |found@0| (not (forall ((k@0 Int)) (=> (and (<= 0 |k@0|) (< |k@0| (- |SIZE@0| 1))) (not (= (select |set@0| |k@0|) |element@0|))))) (not (< |i@0| (- |SIZE@0| 1)))) false)))
(assert (forall ((SIZE@0 Int)(n@0 Int)(set@0 (Array Int Int))(values@0 (Array Int Int))(i@0 Int)(pos@0 Int)(element@0 Int)(found@0 Bool)) (=> (and (!inv2 |SIZE@0| |n@0| |set@0| |values@0| |i@0| |pos@0| |element@0| |found@0|) |found@0| (not (forall ((k@0 Int)) (=> (and (<= 0 |k@0|) (< |k@0| (- |SIZE@0| 1))) (not (= (select |set@0| |k@0|) |element@0|))))) (not (and (< |i@0| |SIZE@0|) (not |found@0|))) (not |found@0|)) false)))
(check-sat)